New structure
1.0
        3.0000000000         0.0000000000         0.0000000000
        0.0000000000         4.0000000000         0.0000000000
        0.0000000000         0.0000000000         5.0000000000
   Xx
   16
Direct
     0.649999976         0.150000006         0.100000001
     0.349999994         0.850000024         0.899999976
     0.649999976         0.850000024         0.899999976
     0.349999994         0.150000006         0.100000001
     0.349999994         0.649999976         0.400000006
     0.649999976         0.349999994         0.600000024
     0.349999994         0.349999994         0.600000024
     0.649999976         0.649999976         0.400000006
     0.150000006         0.649999976         0.600000024
     0.850000024         0.349999994         0.400000006
     0.150000006         0.349999994         0.400000006
     0.850000024         0.649999976         0.600000024
     0.850000024         0.150000006         0.899999976
     0.150000006         0.850000024         0.100000001
     0.850000024         0.850000024         0.100000001
     0.150000006         0.150000006         0.899999976
